p cnf 53 216
30 33 47 0
27 29 32 0
23 26 28 0
17 43 0
21 25 36 0
18 31 38 40 0
44 45 0
41 48 0
19 49 0
46 50 0
22 35 53 0
15 16 0
13 14 0
10 12 0
20 24 0
8 9 42 0
7 52 0
34 51 0
5 6 0
-29 -47 0
-19 -46 0
-19 -22 0
-22 -46 0
-4 -16 0
-14 -16 0
-4 -14 0
-16 -19 0
-46 -47 0
-4 -47 0
-4 -46 0
-22 -29 0
-14 -29 0
-14 -22 0
-27 -33 0
-23 -33 0
-17 -33 0
-23 -27 0
-17 -27 0
-17 -23 0
-25 -38 0
-25 -44 0
-25 -48 0
-38 -44 0
-38 -48 0
-44 -48 0
-9 -11 0
-7 -11 0
-7 -9 0
-6 -51 0
-3 -51 0
-3 -6 0
-25 -33 0
-11 -33 0
-33 -51 0
-11 -25 0
-25 -51 0
-11 -51 0
-27 -38 0
-9 -27 0
-6 -27 0
-9 -38 0
-6 -38 0
-6 -9 0
-23 -44 0
-7 -23 0
-3 -23 0
-7 -44 0
-3 -44 0
-3 -7 0
-17 -48 0
-21 -40 0
-49 -50 0
-35 -49 0
-35 -50 0
-24 -37 0
-24 -42 0
-37 -42 0
-24 -49 0
-21 -50 0
-21 -37 0
-37 -50 0
-35 -40 0
-40 -42 0
-35 -42 0
-30 -32 0
-26 -30 0
-30 -43 0
-26 -32 0
-32 -43 0
-26 -43 0
-18 -36 0
-36 -45 0
-36 -41 0
-18 -45 0
-18 -41 0
-41 -45 0
-2 -15 0
-13 -15 0
-12 -15 0
-2 -13 0
-2 -12 0
-12 -13 0
-20 -39 0
-8 -20 0
-20 -52 0
-8 -39 0
-39 -52 0
-8 -52 0
-5 -34 0
-1 -34 0
-1 -5 0
-15 -20 0
-30 -36 0
-2 -30 0
-30 -39 0
-30 -34 0
-2 -36 0
-36 -39 0
-34 -36 0
-2 -39 0
-2 -34 0
-34 -39 0
-18 -32 0
-13 -32 0
-8 -32 0
-5 -32 0
-13 -18 0
-8 -18 0
-5 -18 0
-8 -13 0
-5 -13 0
-5 -8 0
-26 -45 0
-12 -26 0
-26 -52 0
-1 -26 0
-12 -45 0
-45 -52 0
-1 -45 0
-12 -52 0
-1 -12 0
-1 -52 0
-41 -43 0
-29 -47 0
-27 -33 0
-23 -33 0
-25 -33 0
-33 -38 0
-33 -44 0
-23 -27 0
-25 -27 0
-27 -38 0
-27 -44 0
-23 -25 0
-23 -38 0
-23 -44 0
-25 -38 0
-25 -44 0
-38 -44 0
-21 -40 0
-30 -32 0
-26 -30 0
-30 -36 0
-18 -30 0
-30 -45 0
-26 -32 0
-32 -36 0
-18 -32 0
-32 -45 0
-26 -36 0
-18 -26 0
-26 -45 0
-18 -36 0
-36 -45 0
-18 -45 0
-17 -48 0
-41 -43 0
-16 -19 0
-24 -49 0
-15 -20 0
-22 -46 0
-4 -46 0
-14 -46 0
-4 -22 0
-14 -22 0
-4 -14 0
-9 -11 0
-7 -11 0
-7 -9 0
-35 -50 0
-37 -50 0
-42 -50 0
-35 -37 0
-35 -42 0
-37 -42 0
-2 -13 0
-2 -12 0
-2 -39 0
-2 -8 0
-2 -52 0
-12 -13 0
-13 -39 0
-8 -13 0
-13 -52 0
-12 -39 0
-8 -12 0
-12 -52 0
-8 -39 0
-39 -52 0
-8 -52 0
-6 -51 0
-3 -51 0
-3 -6 0
-5 -34 0
-1 -34 0
-1 -5 0
